200
300
210
208
207
207
206
204
203
202
202
202
199
199
198
197
197
197
196
196
195
195
195
195
194
194
192
192
191
191
190
190
190
189
189
189
187
186
186
184
181
181
178
177
176
176
174
172
172
171
170
170
169
168
166
166
165
165
165
163
162
159
159
159
158
158
157
157
155
154
154
153
153
153
152
150
149
148
148
148
147
145
145
145
144
144
142
142
142
142
141
140
140
139
139
139
139
138
138
138
137
135
135
134
133
129
129
129
128
127
126
126
125
125
124
124
124
122
122
121
121
118
117
116
116
115
114
113
111
111
110
110
110
109
109
108
107
107
107
105
104
104
104
104
104
103
102
102
98
98
96
95
95
95
95
94
94
94
93
92
92
91
91
90
89
89
88
88
88
87
87
86
86
86
85
84
83
83
83
83
82
81
81
80
80
77
75
74
72
70
70
69
69
68
67
67
66
65
64
64
63
63
